ETAPAS=8;
PALLETS=4;
BANDAS=1;
NIVELES=2;
PROFUNDIDAD=2;

A=[[0,1,0,0,0,0,0,0,0],[0,0,1,0,0,0,0,0,0],[0,0,0,1,0,0,0,0,0],[0,0,0,0,1,0,0,0,0]];
D=[[0,0,0,0,0,1,0,0,0],[0,0,0,0,0,0,1,0,0],[0,0,0,0,0,0,0,1,0],[0,0,0,0,0,0,0,0,1]];
Q=[[0,1,1,1,1,1,0,0,0],[0,0,1,1,1,1,1,0,0],[0,0,0,1,1,1,1,1,0],[0,0,0,0,1,1,1,1,1]];